c Nemesis formula in 6CNF in accordance with DIMACS CNF format:
c    Filename: MCNC/c2670/c2670.tdl
c    Formula number 449
c    4848 variables (range: 2 - 4849)
c    1677 clauses
c
c p cnf 4849 1677
p cnf 714 1677
87	0
714	0
87	0
-88	0
86	0
57	-58	0
-57	58	0
86	88	0
-86	-88	0
-705	86	0
-705	57	0
86	57	0
-86	-57	0
705	-88	0
-705	88	0
705	-58	0
-705	58	0
88	-58	0
-88	58	0
113	116	0
-117	-707	0
115	-707	0
117	-708	0
-115	-708	0
-708	706	0
-707	706	0
646	115	0
-646	-115	0
-647	116	0
648	117	0
-648	-117	0
650	646	0
-650	-646	0
-651	647	0
652	648	0
-652	-648	0
486	-650	0
-486	650	0
486	-653	0
-486	653	0
487	-651	0
487	-654	0
488	-652	0
-488	652	0
488	-655	0
-488	655	0
-423	-486	0
-489	-486	0
-492	-486	0
-493	-486	0
-490	487	0
-490	-493	0
-490	-492	0
-490	-423	0
-423	-488	0
-491	-488	0
-492	-488	0
-493	-488	0
-431	-703	0
495	-703	0
431	-704	0
-495	-704	0
-704	493	0
-703	493	0
48	-494	0
-48	494	0
48	-495	0
-48	495	0
48	-675	0
-48	675	0
48	-685	0
-48	685	0
272	-434	0
-272	434	0
272	-435	0
-272	435	0
272	-561	0
-272	561	0
273	272	0
266	272	0
269	272	0
274	272	0
277	274	0
110	274	0
278	274	0
91	-126	0
-91	126	0
91	-127	0
-91	127	0
91	-132	0
-91	132	0
91	-134	0
-91	134	0
91	-140	0
-91	140	0
91	-147	0
-91	147	0
91	-150	0
-91	150	0
91	-155	0
-91	155	0
91	-197	0
-91	197	0
91	-208	0
-91	208	0
91	-268	0
-91	268	0
91	-278	0
-91	278	0
91	-283	0
-91	283	0
91	-285	0
-91	285	0
91	-289	0
-91	289	0
91	-330	0
-91	330	0
91	-334	0
-91	334	0
91	-338	0
-91	338	0
91	-357	0
-91	357	0
91	-361	0
-91	361	0
91	-419	0
-91	419	0
123	-124	0
-123	124	0
123	-125	0
-123	125	0
123	-129	0
-123	129	0
123	-131	0
-123	131	0
123	-144	0
-123	144	0
123	-146	0
-123	146	0
123	-200	0
-123	200	0
123	-203	0
-123	203	0
123	-207	0
-123	207	0
123	-210	0
-123	210	0
123	-275	0
-123	275	0
123	-277	0
-123	277	0
123	-280	0
-123	280	0
123	-282	0
-123	282	0
123	-358	0
-123	358	0
123	-360	0
-123	360	0
123	-418	0
-123	418	0
123	-421	0
-123	421	0
362	123	0
-362	-123	0
42	-135	0
-42	135	0
42	-136	0
-42	136	0
42	-139	0
-42	139	0
42	-141	0
-42	141	0
42	-149	0
-42	149	0
42	-151	0
-42	151	0
42	-154	0
-42	154	0
42	-156	0
-42	156	0
42	-196	0
-42	196	0
42	-198	0
-42	198	0
42	-214	0
-42	214	0
42	-267	0
-42	267	0
42	-270	0
-42	270	0
42	-284	0
-42	284	0
42	-286	0
-42	286	0
42	-288	0
-42	288	0
42	-331	0
-42	331	0
42	-333	0
-42	333	0
42	-335	0
-42	335	0
42	-337	0
-42	337	0
42	-353	0
-42	353	0
42	-356	0
-42	356	0
42	-362	0
-42	362	0
270	269	0
28	269	0
271	269	0
128	-137	0
-128	137	0
128	-138	0
-128	138	0
128	-142	0
-128	142	0
128	-145	0
-128	145	0
128	-152	0
-128	152	0
128	-157	0
-128	157	0
128	-199	0
-128	199	0
128	-201	0
-128	201	0
128	-204	0
-128	204	0
128	-211	0
-128	211	0
128	-215	0
-128	215	0
128	-271	0
-128	271	0
128	-276	0
-128	276	0
128	-281	0
-128	281	0
128	-287	0
-128	287	0
128	-332	0
-128	332	0
128	-336	0
-128	336	0
128	-354	0
-128	354	0
128	-359	0
-128	359	0
128	-422	0
-128	422	0
338	128	0
-338	-128	0
267	266	0
78	266	0
268	266	0
275	273	0
109	273	0
276	273	0
76	-347	0
-76	347	0
76	-348	0
-76	348	0
76	-404	0
-76	404	0
76	-409	0
-76	409	0
76	-415	0
-76	415	0
76	-425	0
-76	425	0
76	-429	0
-76	429	0
76	-433	0
-76	433	0
76	-438	0
-76	438	0
341	-345	0
-341	345	0
341	-346	0
-341	346	0
341	-408	0
-341	408	0
341	-414	0
-341	414	0
341	-424	0
-341	424	0
341	-428	0
-341	428	0
341	-432	0
-341	432	0
341	-437	0
-341	437	0
404	341	0
-404	-341	0
475	492	0
-475	-492	0
-476	-475	0
-477	-475	0
640	477	0
-558	-640	0
-436	-697	0
668	-697	0
436	-698	0
-668	-698	0
-698	558	0
-697	558	0
23	-668	0
-23	668	0
23	-669	0
-23	669	0
23	-672	0
-23	672	0
23	-686	0
-23	686	0
410	-439	0
-410	439	0
410	-440	0
-410	440	0
410	-497	0
-410	497	0
410	-560	0
-410	560	0
420	410	0
153	410	0
417	410	0
418	417	0
61	417	0
419	417	0
421	420	0
37	420	0
422	420	0
413	-680	0
-413	680	0
413	-681	0
-413	681	0
343	-350	0
-343	350	0
343	-351	0
-343	351	0
343	-416	0
-343	416	0
343	-485	0
-343	485	0
279	343	0
355	343	0
352	343	0
353	352	0
105	352	0
354	352	0
356	355	0
11	355	0
357	355	0
677	676	0
-677	-676	0
67	-632	0
-67	632	0
67	-633	0
-67	633	0
67	-674	0
-67	674	0
67	-677	0
-67	677	0
67	-679	0
-67	679	0
67	-687	0
-67	687	0
680	678	0
-680	-678	0
645	639	0
-645	-639	0
344	-644	0
-344	644	0
344	-645	0
-344	645	0
193	-257	0
-193	257	0
193	-258	0
-193	258	0
193	-328	0
-193	328	0
193	-349	0
-193	349	0
194	193	0
195	193	0
122	193	0
124	122	0
18	122	0
126	122	0
200	194	0
35	194	0
201	194	0
3	-259	0
-3	259	0
3	-260	0
-3	260	0
3	-613	0
-3	613	0
3	-638	0
-3	638	0
3	-643	0
-3	643	0
3	-683	0
-3	683	0
635	-641	0
-635	641	0
635	-642	0
-635	642	0
638	635	0
-638	-635	0
480	476	0
64	-483	0
-64	483	0
64	-484	0
-64	484	0
64	-581	0
-64	581	0
64	-584	0
-64	584	0
64	-684	0
-64	684	0
216	-261	0
-216	261	0
216	-262	0
-216	262	0
216	-329	0
-216	329	0
216	-430	0
-216	430	0
143	216	0
217	216	0
213	216	0
214	213	0
107	213	0
215	213	0
288	217	0
80	217	0
289	217	0
481	478	0
-481	-478	0
407	-481	0
-407	481	0
407	-482	0
-407	482	0
205	-411	0
-205	411	0
205	-412	0
-205	412	0
202	205	0
133	205	0
130	205	0
131	130	0
65	130	0
132	130	0
203	202	0
72	202	0
204	202	0
47	-670	0
-47	670	0
47	-671	0
-47	671	0
47	-673	0
-47	673	0
47	-688	0
-47	688	0
479	-626	0
-479	626	0
479	-627	0
-479	627	0
479	-630	0
-479	630	0
673	479	0
-673	-479	0
509	489	0
-510	490	0
-505	-499	0
-500	-504	0
511	491	0
-512	-509	0
-514	-509	0
-515	-509	0
-518	-509	0
-516	510	0
-516	-518	0
-516	-514	0
-516	-512	0
-512	-511	0
-514	-511	0
-517	-511	0
-518	-511	0
-381	-695	0
562	-695	0
381	-696	0
-562	-696	0
-696	518	0
-695	518	0
49	-464	0
-49	464	0
49	-465	0
-49	465	0
49	-525	0
-49	525	0
49	-562	0
-49	562	0
226	-405	0
-226	405	0
226	-406	0
-226	406	0
226	-474	0
-226	474	0
226	-524	0
-226	524	0
226	-580	0
-226	580	0
158	226	0
221	226	0
218	226	0
219	218	0
90	218	0
220	218	0
46	-163	0
-46	163	0
46	-164	0
-46	164	0
46	-168	0
-46	168	0
46	-174	0
-46	174	0
46	-182	0
-46	182	0
46	-185	0
-46	185	0
46	-190	0
-46	190	0
46	-220	0
-46	220	0
46	-229	0
-46	229	0
46	-232	0
-46	232	0
46	-241	0
-46	241	0
46	-246	0
-46	246	0
46	-251	0
-46	251	0
46	-254	0
-46	254	0
46	-290	0
-46	290	0
46	-293	0
-46	293	0
46	-307	0
-46	307	0
46	-368	0
-46	368	0
46	-370	0
-46	370	0
46	-374	0
-46	374	0
46	-378	0
-46	378	0
178	-180	0
-178	180	0
178	-181	0
-178	181	0
178	-219	0
-178	219	0
178	-222	0
-178	222	0
178	-228	0
-178	228	0
178	-231	0
-178	231	0
178	-234	0
-178	234	0
178	-248	0
-178	248	0
178	-250	0
-178	250	0
178	-253	0
-178	253	0
178	-292	0
-178	292	0
178	-295	0
-178	295	0
178	-298	0
-178	298	0
178	-306	0
-178	306	0
178	-309	0
-178	309	0
178	-317	0
-178	317	0
178	-364	0
-178	364	0
178	-367	0
-178	367	0
178	-369	0
-178	369	0
178	-371	0
-178	371	0
391	178	0
-391	-178	0
74	-161	0
-74	161	0
74	-162	0
-74	162	0
74	-165	0
-74	165	0
74	-167	0
-74	167	0
74	-169	0
-74	169	0
74	-173	0
-74	173	0
74	-175	0
-74	175	0
74	-184	0
-74	184	0
74	-186	0
-74	186	0
74	-189	0
-74	189	0
74	-191	0
-74	191	0
74	-225	0
-74	225	0
74	-240	0
-74	240	0
74	-242	0
-74	242	0
74	-245	0
-74	245	0
74	-303	0
-74	303	0
74	-313	0
-74	313	0
74	-373	0
-74	373	0
74	-375	0
-74	375	0
74	-377	0
-74	377	0
74	-391	0
-74	391	0
160	-170	0
-160	170	0
160	-171	0
-160	171	0
160	-176	0
-160	176	0
160	-179	0
-160	179	0
160	-187	0
-160	187	0
160	-192	0
-160	192	0
160	-223	0
-160	223	0
160	-224	0
-160	224	0
160	-235	0
-160	235	0
160	-243	0
-160	243	0
160	-249	0
-160	249	0
160	-296	0
-160	296	0
160	-299	0
-160	299	0
160	-304	0
-160	304	0
160	-310	0
-160	310	0
160	-314	0
-160	314	0
160	-318	0
-160	318	0
160	-365	0
-160	365	0
160	-372	0
-160	372	0
160	-376	0
-160	376	0
290	160	0
-290	-160	0
161	158	0
101	158	0
163	158	0
59	-384	0
-59	384	0
59	-385	0
-59	385	0
59	-386	0
-59	386	0
59	-389	0
-59	389	0
59	-394	0
-59	394	0
59	-446	0
-59	446	0
59	-453	0
-59	453	0
59	-456	0
-59	456	0
59	-460	0
-59	460	0
59	-463	0
-59	463	0
380	-382	0
-380	382	0
380	-383	0
-380	383	0
380	-388	0
-380	388	0
380	-393	0
-380	393	0
380	-444	0
-380	444	0
380	-452	0
-380	452	0
380	-455	0
-380	455	0
380	-459	0
-380	459	0
380	-462	0
-380	462	0
386	380	0
-386	-380	0
533	515	0
-534	516	0
-531	-539	0
-540	-530	0
-537	-542	0
-543	-536	0
535	517	0
-595	-533	0
-596	534	0
-603	587	0
-588	602	0
-599	591	0
-592	598	0
-597	-535	0
-441	-691	0
616	-691	0
441	-692	0
-616	-692	0
-692	595	0
-691	595	0
-442	596	0
-443	-709	0
616	-709	0
443	-710	0
-616	-710	0
-710	597	0
-709	597	0
92	-615	0
-92	615	0
92	-616	0
-92	616	0
92	-619	0
-92	619	0
-449	446	0
-447	448	0
-445	86	0
-87	444	0
265	-326	0
-265	326	0
265	-327	0
-265	327	0
265	-448	0
-265	448	0
265	-470	0
-265	470	0
265	-472	0
-265	472	0
363	265	0
166	265	0
366	265	0
367	366	0
2	366	0
368	366	0
364	363	0
32	363	0
365	363	0
340	-601	0
-340	601	0
340	-602	0
-340	602	0
118	-263	0
-118	263	0
118	-264	0
-118	264	0
118	-339	0
-118	339	0
118	-342	0
-118	342	0
119	118	0
120	118	0
121	118	0
125	121	0
55	121	0
127	121	0
129	119	0
5	119	0
137	119	0
590	587	0
-590	-587	0
111	-255	0
-111	255	0
111	-256	0
-111	256	0
111	-590	0
-111	590	0
111	-598	0
-111	598	0
111	-612	0
-111	612	0
601	591	0
-601	-591	0
545	530	0
-545	-530	0
387	-542	0
-387	542	0
387	-545	0
-387	545	0
311	-324	0
-311	324	0
311	-325	0
-311	325	0
311	-390	0
-311	390	0
311	-473	0
-311	473	0
311	-496	0
-311	496	0
311	-523	0
-311	523	0
311	-559	0
-311	559	0
308	311	0
239	311	0
305	311	0
306	305	0
53	305	0
307	305	0
309	308	0
25	308	0
310	308	0
54	-526	0
-54	526	0
54	-527	0
-54	527	0
54	-539	0
-54	539	0
395	-396	0
-395	396	0
395	-397	0
-395	397	0
395	-536	0
-395	536	0
527	395	0
-527	-395	0
571	514	0
572	514	0
519	514	0
567	514	0
628	567	0
570	567	0
458	-569	0
-458	569	0
458	-570	0
-458	570	0
236	-554	0
-236	554	0
236	-555	0
-236	555	0
236	-579	0
-236	579	0
236	-614	0
-236	614	0
236	-661	0
-236	661	0
236	-662	0
-236	662	0
236	-665	0
-236	665	0
233	236	0
183	236	0
227	236	0
228	227	0
22	227	0
229	227	0
234	233	0
103	233	0
235	233	0
568	-628	0
-568	628	0
568	-629	0
-568	629	0
568	-631	0
-568	631	0
622	568	0
-622	-568	0
1	-621	0
-1	621	0
1	-622	0
-1	622	0
1	-649	0
-1	649	0
50	-582	0
-50	582	0
50	-583	0
-50	583	0
50	-585	0
-50	585	0
50	-623	0
-50	623	0
315	-546	0
-315	546	0
315	-547	0
-315	547	0
315	-550	0
-315	550	0
315	-578	0
-315	578	0
315	-657	0
-315	657	0
315	-658	0
-315	658	0
315	-660	0
-315	660	0
315	-663	0
-315	663	0
315	-664	0
-315	664	0
315	-666	0
-315	666	0
315	-667	0
-315	667	0
247	315	0
244	315	0
312	315	0
313	312	0
39	312	0
314	312	0
245	244	0
26	244	0
246	244	0
-573	-572	0
-520	-572	0
-563	-572	0
-454	-693	0
565	-693	0
454	-694	0
-565	-694	0
-694	563	0
-693	563	0
93	-564	0
-93	564	0
93	-565	0
-93	565	0
93	-594	0
-93	594	0
237	-320	0
-237	320	0
237	-321	0
-237	321	0
237	-457	0
-237	457	0
237	-521	0
-237	521	0
237	-552	0
-237	552	0
237	-574	0
-237	574	0
237	-605	0
-237	605	0
237	-611	0
-237	611	0
238	237	0
172	237	0
230	237	0
231	230	0
62	230	0
232	230	0
298	238	0
43	238	0
299	238	0
-392	-699	0
528	-699	0
392	-700	0
-528	-700	0
-700	520	0
-699	520	0
79	-528	0
-79	528	0
79	-529	0
-79	529	0
79	-586	0
-79	586	0
79	-634	0
-79	634	0
319	-466	0
-319	466	0
319	-467	0
-319	467	0
319	-468	0
-319	468	0
319	-522	0
-319	522	0
319	-557	0
-319	557	0
319	-617	0
-319	617	0
319	-620	0
-319	620	0
316	319	0
188	319	0
252	319	0
253	252	0
19	252	0
254	252	0
317	316	0
82	316	0
318	316	0
-451	-689	0
625	-689	0
451	-690	0
-625	-690	0
-690	573	0
-689	573	0
99	-624	0
-99	624	0
99	-625	0
-99	625	0
99	-636	0
-99	636	0
99	-637	0
-99	637	0
297	-575	0
-297	575	0
297	-576	0
-297	576	0
297	-577	0
-297	577	0
297	-609	0
-297	609	0
297	-656	0
-297	656	0
297	-659	0
-297	659	0
297	-682	0
-297	682	0
294	297	0
159	297	0
291	297	0
292	291	0
104	291	0
293	291	0
295	294	0
44	294	0
296	294	0
566	571	0
621	571	0
569	566	0
-569	-566	0
-379	-701	0
513	-701	0
379	-702	0
-513	-702	0
-702	512	0
-701	512	0
68	-322	0
-68	322	0
68	-323	0
-68	323	0
68	-513	0
-68	513	0
68	-618	0
-68	618	0
300	-398	0
-300	398	0
300	-399	0
-300	399	0
300	-403	0
-300	403	0
300	-469	0
-300	469	0
300	-471	0
-300	471	0
177	300	0
301	300	0
302	300	0
303	302	0
75	302	0
304	302	0
377	301	0
77	301	0
378	301	0
-508	-504	0
-548	-504	0
498	-548	0
-498	548	0
498	-549	0
-498	549	0
498	-553	0
-498	553	0
498	-606	0
-498	606	0
498	-608	0
-498	608	0
502	498	0
-502	-498	0
106	-502	0
-106	502	0
106	-503	0
-106	503	0
106	-551	0
-106	551	0
106	-556	0
-106	556	0
106	-607	0
-106	607	0
106	-610	0
-106	610	0
450	-507	0
-450	507	0
450	-508	0
-450	508	0
36	450	0
-36	-450	0
-507	-499	0
-503	-499	0
212	-400	0
-212	400	0
212	-401	0
-212	401	0
212	-402	0
-212	402	0
212	-426	0
-212	426	0
209	212	0
148	212	0
206	212	0
207	206	0
8	206	0
208	206	0
210	209	0
30	209	0
211	209	0
-114	-712	0
112	-712	0
114	-713	0
-112	-713	0
-713	711	0
-712	711	0
653	112	0
-653	-112	0
-654	113	0
655	114	0
-655	-114	0
-711	714	0
-706	714	0
705	-57	-86	0
707	117	-115	0
708	-117	115	0
-706	708	707	0
-116	115	117	0
-116	-115	-117	0
-647	646	648	0
-647	-646	-648	0
-487	651	654	0
-654	653	655	0
-654	-653	-655	0
-651	650	652	0
-651	-650	-652	0
-487	486	488	0
-487	-486	-488	0
703	431	-495	0
704	-431	495	0
-493	704	703	0
-432	-33	-431	0
-435	-433	-431	0
433	33	431	0
435	33	431	0
433	432	431	0
435	432	431	0
475	476	477	0
642	644	477	0
639	643	477	0
-679	-678	-640	0
-681	-676	-640	0
697	436	-668	0
698	-436	668	0
-558	698	697	0
-437	-102	-436	0
-440	-438	-436	0
438	102	436	0
440	102	436	0
438	437	436	0
440	437	436	0
156	154	153	0
94	154	153	0
157	154	153	0
156	66	153	0
94	66	153	0
157	66	153	0
156	155	153	0
94	155	153	0
157	155	153	0
-414	-29	-413	0
-416	-415	-413	0
415	29	413	0
416	29	413	0
415	414	413	0
416	414	413	0
282	280	279	0
81	280	279	0
283	280	279	0
282	73	279	0
81	73	279	0
283	73	279	0
282	281	279	0
81	281	279	0
283	281	279	0
-346	-34	-344	0
-349	-348	-344	0
348	34	344	0
349	34	344	0
348	346	344	0
349	346	344	0
198	196	195	0
52	196	195	0
199	196	195	0
198	85	195	0
52	85	195	0
199	85	195	0
198	197	195	0
52	197	195	0
199	197	195	0
626	482	476	0
478	670	476	0
484	427	480	0
-484	-427	480	0
-484	427	-480	0
484	-427	-480	0
-428	-84	-427	0
-430	-429	-427	0
429	84	427	0
430	84	427	0
429	428	427	0
430	428	427	0
146	144	143	0
14	144	143	0
147	144	143	0
146	16	143	0
14	16	143	0
147	16	143	0
146	145	143	0
14	145	143	0
147	145	143	0
-408	-40	-407	0
-411	-409	-407	0
409	40	407	0
411	40	407	0
409	408	407	0
411	408	407	0
136	135	133	0
13	135	133	0
138	135	133	0
136	100	133	0
13	100	133	0
138	100	133	0
136	134	133	0
13	134	133	0
138	134	133	0
504	499	489	0
-509	-499	-489	0
-509	-504	-489	0
-505	-506	511	0
-505	-504	509	0
-505	509	511	0
-500	-501	511	0
-500	-499	509	0
-500	509	511	0
-510	504	499	0
-490	489	491	0
-490	-489	-491	0
504	499	491	0
-511	-499	-491	0
-511	-504	-491	0
-510	509	511	0
-510	-509	-511	0
695	381	-562	0
696	-381	562	0
-518	696	695	0
-383	-17	-381	0
-405	-385	-381	0
385	17	381	0
405	17	381	0
385	383	381	0
405	383	381	0
-225	-224	-221	0
224	222	221	0
225	222	221	0
224	38	221	0
225	38	221	0
224	223	221	0
225	223	221	0
536	542	515	0
530	539	515	0
-531	-532	535	0
-531	-530	533	0
-531	533	535	0
-540	-541	535	0
-540	-539	533	0
-540	533	535	0
-537	-538	535	0
-537	-536	533	0
-537	533	535	0
-543	-544	535	0
-543	-542	533	0
-543	533	535	0
-534	530	539	0
-534	536	542	0
-531	536	542	0
-540	536	542	0
-537	530	539	0
-543	530	539	0
-516	515	517	0
-516	-515	-517	0
536	542	517	0
530	539	517	0
-598	-591	-533	0
-602	-587	-533	0
-603	-604	-595	0
-603	-602	-597	0
-603	-595	-597	0
-588	-589	-595	0
-588	-587	-597	0
-588	-595	-597	0
-599	-600	-595	0
-599	-598	-597	0
-599	-595	-597	0
-592	-593	-595	0
-592	-591	-597	0
-592	-595	-597	0
-596	-602	-587	0
-596	-598	-591	0
-603	-598	-591	0
-588	-598	-591	0
-599	-602	-587	0
-592	-602	-587	0
-534	533	535	0
-534	-533	-535	0
-598	-591	-535	0
-602	-587	-535	0
691	441	-616	0
692	-441	616	0
-595	692	691	0
-596	595	597	0
-596	-595	-597	0
709	443	-616	0
710	-443	616	0
-597	710	709	0
-444	-86	-441	0
-448	-446	-441	0
446	86	441	0
448	86	441	0
446	444	441	0
448	444	441	0
-449	-444	-86	0
-447	-444	-86	0
-445	-448	-446	0
-87	-448	-446	0
-442	441	443	0
-442	-441	-443	0
-444	-88	-443	0
-448	-446	-443	0
446	88	443	0
448	88	443	0
446	444	443	0
448	444	443	0
169	167	166	0
95	167	166	0
171	167	166	0
169	21	166	0
95	21	166	0
171	21	166	0
169	168	166	0
95	168	166	0
171	168	166	0
-345	-96	-340	0
-342	-347	-340	0
347	96	340	0
342	96	340	0
347	345	340	0
342	345	340	0
141	139	120	0
60	139	120	0
142	139	120	0
141	7	120	0
60	7	120	0
142	7	120	0
141	140	120	0
60	140	120	0
142	140	120	0
-388	-108	-387	0
-390	-389	-387	0
389	108	387	0
390	108	387	0
389	388	387	0
390	388	387	0
242	240	239	0
45	240	239	0
243	240	239	0
242	15	239	0
45	15	239	0
243	15	239	0
242	241	239	0
45	241	239	0
243	241	239	0
-567	-628	-570	0
-459	-57	-458	0
-554	-460	-458	0
460	57	458	0
554	57	458	0
460	459	458	0
554	459	458	0
186	184	183	0
56	184	183	0
187	184	183	0
186	10	183	0
56	10	183	0
187	10	183	0
186	185	183	0
56	185	183	0
187	185	183	0
582	461	519	0
-582	-461	519	0
-582	461	-519	0
582	-461	-519	0
-462	-24	-461	0
-546	-463	-461	0
463	24	461	0
546	24	461	0
463	462	461	0
546	462	461	0
250	248	247	0
20	248	247	0
251	248	247	0
250	63	247	0
20	63	247	0
251	63	247	0
250	249	247	0
20	249	247	0
251	249	247	0
693	454	-565	0
694	-454	565	0
-563	694	693	0
-455	-31	-454	0
-457	-456	-454	0
456	31	454	0
457	31	454	0
456	455	454	0
457	455	454	0
175	173	172	0
51	173	172	0
176	173	172	0
175	12	172	0
51	12	172	0
176	12	172	0
175	174	172	0
51	174	172	0
176	174	172	0
699	392	-528	0
700	-392	528	0
-520	700	699	0
-393	-4	-392	0
-466	-394	-392	0
394	4	392	0
466	4	392	0
394	393	392	0
466	393	392	0
191	189	188	0
69	189	188	0
192	189	188	0
191	98	188	0
69	98	188	0
192	98	188	0
191	190	188	0
69	190	188	0
192	190	188	0
689	451	-625	0
690	-451	625	0
-573	690	689	0
-452	-9	-451	0
-575	-453	-451	0
453	9	451	0
575	9	451	0
453	452	451	0
575	452	451	0
165	162	159	0
6	162	159	0
170	162	159	0
165	27	159	0
6	27	159	0
170	27	159	0
165	164	159	0
6	164	159	0
170	164	159	0
-571	-566	-621	0
701	379	-513	0
702	-379	513	0
-512	702	701	0
-382	-41	-379	0
-398	-384	-379	0
384	41	379	0
398	41	379	0
384	382	379	0
398	382	379	0
181	180	177	0
71	180	177	0
182	180	177	0
181	83	177	0
71	83	177	0
182	83	177	0
181	179	177	0
71	179	177	0
182	179	177	0
504	508	548	0
499	507	503	0
-424	-70	-423	0
-426	-425	-423	0
425	70	423	0
426	70	423	0
425	424	423	0
426	424	423	0
151	149	148	0
89	149	148	0
152	149	148	0
151	97	148	0
89	97	148	0
152	97	148	0
151	150	148	0
89	150	148	0
152	150	148	0
712	114	-112	0
713	-114	112	0
-711	713	712	0
-113	112	114	0
-113	-112	-114	0
-714	711	706	0
-274	-277	-110	-278	0
-269	-270	-28	-271	0
-266	-267	-78	-268	0
-273	-275	-109	-276	0
-640	-643	-644	-477	0
-640	-639	-644	-477	0
-640	-643	-642	-477	0
-640	-639	-642	-477	0
558	676	678	640	0
558	681	678	640	0
558	676	679	640	0
558	681	679	640	0
-410	-420	-153	-417	0
-417	-418	-61	-419	0
-155	-66	-154	-153	0
-157	-94	-156	-153	0
-420	-421	-37	-422	0
-343	-279	-355	-352	0
-352	-353	-105	-354	0
-355	-356	-11	-357	0
-281	-73	-280	-279	0
-283	-81	-282	-279	0
-193	-194	-195	-122	0
-122	-124	-18	-126	0
-197	-85	-196	-195	0
-199	-52	-198	-195	0
-194	-200	-35	-201	0
-480	-670	-482	-476	0
-480	-478	-482	-476	0
-480	-670	-626	-476	0
-480	-478	-626	-476	0
-216	-143	-217	-213	0
-213	-214	-107	-215	0
-217	-288	-80	-289	0
-145	-16	-144	-143	0
-147	-14	-146	-143	0
-205	-202	-133	-130	0
-130	-131	-65	-132	0
-134	-100	-135	-133	0
-138	-13	-136	-133	0
-202	-203	-72	-204	0
-226	-158	-221	-218	0
-218	-219	-90	-220	0
-223	-38	-222	-221	0
-158	-161	-101	-163	0
-533	-539	-542	-515	0
-533	-530	-542	-515	0
-533	-539	-536	-515	0
-533	-530	-536	-515	0
-535	-539	-542	-517	0
-535	-530	-542	-517	0
-535	-539	-536	-517	0
-535	-530	-536	-517	0
595	587	591	533	0
595	602	591	533	0
595	587	598	533	0
595	602	598	533	0
597	587	591	535	0
597	602	591	535	0
597	587	598	535	0
597	602	598	535	0
-265	-363	-166	-366	0
-366	-367	-2	-368	0
-168	-21	-167	-166	0
-171	-95	-169	-166	0
-363	-364	-32	-365	0
-118	-119	-120	-121	0
-121	-125	-55	-127	0
-140	-7	-139	-120	0
-142	-60	-141	-120	0
-119	-129	-5	-137	0
-311	-308	-239	-305	0
-305	-306	-53	-307	0
-241	-15	-240	-239	0
-243	-45	-242	-239	0
-308	-309	-25	-310	0
-236	-233	-183	-227	0
-227	-228	-22	-229	0
-185	-10	-184	-183	0
-187	-56	-186	-183	0
-233	-234	-103	-235	0
-315	-247	-244	-312	0
-312	-313	-39	-314	0
-244	-245	-26	-246	0
-249	-63	-248	-247	0
-251	-20	-250	-247	0
572	573	520	563	0
-237	-238	-172	-230	0
-230	-231	-62	-232	0
-174	-12	-173	-172	0
-176	-51	-175	-172	0
-238	-298	-43	-299	0
-319	-316	-188	-252	0
-252	-253	-19	-254	0
-190	-98	-189	-188	0
-192	-69	-191	-188	0
-316	-317	-82	-318	0
-297	-294	-159	-291	0
-291	-292	-104	-293	0
-164	-27	-162	-159	0
-170	-6	-165	-159	0
-294	-295	-44	-296	0
-300	-177	-301	-302	0
-302	-303	-75	-304	0
-301	-377	-77	-378	0
-179	-83	-180	-177	0
-182	-71	-181	-177	0
-212	-209	-148	-206	0
-206	-207	-8	-208	0
-150	-97	-149	-148	0
-152	-89	-151	-148	0
-209	-210	-30	-211	0
486	423	489	492	493	0
488	423	491	492	493	0
-272	-273	-266	-269	-274	0
509	512	514	515	518	0
511	512	514	517	518	0
-514	-571	-572	-519	-567	0
